NAME : XML100_2361_15
DIMENSION : 101
NB_CLUSTERS : 3
CLUSTERING_ALG : KMedoids
CLUSTERING_PARAMS : k(2)
CLUSTERS
1 0
2 2 3 5 7 8 9 14 15 17 18 20 21 23 25 26 27 28 29 30 32 36 40 41 43 44 45 46 48 51 55 56 62 63 68 69 71 73 74 79 80 81 82 83 85 87 89 91 93 96 98
3 1 4 6 10 11 12 13 16 19 22 24 31 33 34 35 37 38 39 42 47 49 50 52 53 54 57 58 59 60 61 64 65 66 67 70 72 75 76 77 78 84 86 88 90 92 94 95 97 99 100
EOF